c WARNING: for repeatability, setting FPU to use double precision
d VARIABLES            139150       
d CONSTRAINTS          583504       
c ============================[ Problem Statistics ]=============================
c |                                                                             |
c |  Number of variables:        139150                                         |
c |  Number of clauses:          583504                                         |
c |  Parse time:                   0.08 s                                       |
c |                                                                             |
c ============================[ Search Statistics ]==============================
c | Conflicts |          ORIGINAL         |          LEARNT          | Progress |
c |           |    Vars  Clauses Literals |    Limit  Clauses Lit/Cl |          |
c ===============================================================================
c |       100 |  108975   505282  1229645 |   185270      100     48 | 21.685 % |
c |       250 |  108975   505282  1229645 |   203797      250     80 | 21.685 % |
c |       475 |  108975   505282  1229645 |   224176      475    149 | 21.685 % |
c |       812 |  108975   505282  1229645 |   246594      812    140 | 21.685 % |
c |      1318 |  108975   505282  1229645 |   271253     1318    132 | 21.685 % |
c |      2077 |  108975   505282  1229645 |   298379     2077    127 | 21.685 % |
c |      3216 |  108975   505282  1229645 |   328217     3216    163 | 21.685 % |
c |      4924 |  108975   505282  1229645 |   361038     4924    164 | 21.685 % |
c |      7486 |  108975   505282  1229645 |   397142     7486    155 | 21.685 % |
c |     11330 |  108975   505282  1229645 |   436857    11330    157 | 21.685 % |
c |     17096 |  108975   505282  1229645 |   480542    17096    176 | 21.685 % |
c |     25745 |  108975   505282  1229645 |   528597    25745    174 | 21.685 % |
c |     38719 |  108975   505282  1229645 |   581456    38719    181 | 21.685 % |
c |     58180 |  108975   505282  1229645 |   639602    58180    177 | 21.685 % |
c |     87372 |  108975   505282  1229645 |   703562    87372    175 | 21.685 % |
c |    131161 |  108975   505282  1229645 |   773919   131161    172 | 21.685 % |
c |    196845 |  108975   505282  1229645 |   851310   196845    180 | 21.685 % |
c |    295371 |  108975   505282  1229645 |   936442   295371    181 | 21.685 % |
c |    443160 |  108975   505282  1229645 |  1030086   443160    176 | 21.685 % |
c |    664843 |  108975   505282  1229645 |  1133094   664843    180 | 21.685 % |
c |    997368 |  108975   505282  1229645 |  1246404   997368    180 | 21.685 % |
c |   1496156 |  108975   505282  1229645 |  1371044   246207    157 | 21.685 % |
c ===============================================================================
c restarts              : 3910
c conflicts             : 1995727        (1117 /sec)
c decisions             : 4555542        (0.00 % random) (2550 /sec)
c propagations          : 3401483826     (1904032 /sec)
c conflict literals     : 338694122      (43.09 % deleted)
d RESTARTS             3910
d FAILURES             1995727      
d NODES                4555542      
d BACKTRACKS           4555542      
d PROPAGATIONS         3401483826   
d NOGOODSIZE           169.71 
d MEMORY               1047.00 
d TIME                 1786.46 

s UNKNOWN
